6 9 19 3 16 18 15 13 2 14 7 17 1 0 8 4 12 5 10 11  
6 9 19 3 16 18 15 13 2 14 7 17 1 0 8 4 12 5 10 11  
6 9 19 3 18 16 2 14 7 17 13 1 0 4 15 12 8 5 10 11  
6 9 19 3 16 18 14 7 2 17 13 1 0 4 15 12 8 5 10 11  
6 9 16 19 3 7 2 14 18 17 13 1 0 4 12 15 8 5 10 11  
6 9 19 3 16 7 2 17 13 18 1 0 14 4 15 12 8 5 10 11  
6 9 19 7 16 14 3 18 2 17 13 1 0 4 15 12 8 5 10 11  
6 9 19 18 16 3 14 7 15 17 13 0 4 2 10 8 5 12 1 11  
6 9 19 3 16 18 2 13 15 7 17 1 0 14 12 4 8 5 10 11  
6 9 19 18 16 3 14 7 15 17 13 1 0 2 12 4 8 5 10 11  
6 9 19 16 18 3 14 7 15 17 13 8 0 2 4 12 5 10 1 11  
6 9 19 3 16 18 14 7 2 17 13 1 0 4 15 12 8 5 10 11  
6 9 19 16 3 18 14 7 2 17 13 1 0 4 12 15 8 5 10 11  
6 9 19 3 16 7 15 18 2 17 13 1 0 14 12 4 8 5 10 11  
6 9 16 19 3 18 14 7 2 17 13 1 0 4 12 15 8 5 10 11  
6 9 19 3 16 14 18 7 2 17 13 1 0 4 12 15 8 5 10 11  
6 9 19 7 16 3 14 18 2 17 13 1 0 4 12 15 8 5 10 11  
6 9 19 18 16 3 14 7 15 17 13 1 0 2 12 4 8 5 10 11  
6 9 19 18 16 3 14 7 15 17 13 1 0 2 12 4 8 5 10 11  
6 9 19 3 16 18 15 13 2 7 17 1 14 0 12 4 8 5 10 11  
